NAME: random_70_1
TYPE: TSP
COMMENT: random_70_1
DIMENSION: 70
EDGE_WEIGHT_TYPE: EUC_2D
NODE_COORD_SECTION
1 454 40
2 175 478
3 161 431
4 93 237
5 228 55
6 335 422
7 88 41
8 69 234
9 60 482
10 256 486
11 369 406
12 188 334
13 467 488
14 288 181
15 87 270
16 277 499
17 453 433
18 50 384
19 44 480
20 189 418
21 267 462
22 111 187
23 130 292
24 263 153
25 468 202
26 341 414
27 179 344
28 477 431
29 228 434
30 238 147
31 257 105
32 17 347
33 192 486
34 117 244
35 162 105
36 214 68
37 289 82
38 386 115
39 168 0
40 45 158
41 164 361
42 412 84
43 314 187
44 472 72
45 332 374
46 158 154
47 391 81
48 424 33
49 165 422
50 54 39
51 61 59
52 6 78
53 10 285
54 220 22
55 443 224
56 188 119
57 439 443
58 61 37
59 407 427
60 127 441
61 416 463
62 160 361
63 273 189
64 292 355
65 438 98
66 336 445
67 339 336
68 203 351
69 316 476
70 460 415
